
n_res = 8;
rcap = [268, 272, 273, 271, 791, 712, 771, 741];
rtype = [1, 1, 1, 1, 2, 2, 2, 2];
n_tasks = 50;
modes =  [{1, 2, 3}, {4, 5, 6}, {7, 8, 9}, {10, 11, 12}, {13, 14, 15}, {16, 17, 18}, {19, 20, 21}, {22, 23, 24}, {25, 26, 27}, {28, 29, 30}, {31, 32, 33}, {34, 35, 36}, {37, 38, 39}, {40, 41, 42}, {43, 44, 45}, {46, 47, 48}, {49, 50, 51}, {52, 53, 54}, {55, 56, 57}, {58, 59, 60}, {61, 62, 63}, {64, 65, 66}, {67, 68, 69}, {70, 71, 72}, {73, 74, 75}, {76, 77, 78}, {79, 80, 81}, {82, 83, 84}, {85, 86, 87}, {88, 89, 90}, {91, 92, 93}, {94, 95, 96}, {97, 98, 99}, {100, 101, 102}, {103, 104, 105}, {106, 107, 108}, {109, 110, 111}, {112, 113, 114}, {115, 116, 117}, {118, 119, 120}, {121, 122, 123}, {124, 125, 126}, {127, 128, 129}, {130, 131, 132}, {133, 134, 135}, {136, 137, 138}, {139, 140, 141}, {142, 143, 144}, {145, 146, 147}, {148, 149, 150}];
succ =  [{48, 47, 33, 31, 24, 21, 19, 18, 16, 11}, {47, 33, 30, 23, 22, 16, 9}, {48, 45, 44, 42, 35, 32, 30, 26, 24, 23, 22, 21, 20}, {49, 47, 46, 45, 44, 31, 29, 28, 24, 23, 22, 19}, {47, 42, 40, 31, 30, 27, 25, 18}, {48, 43, 33, 32, 31, 22, 13}, {44, 41, 31, 29, 27, 24, 16}, {48, 31, 21, 19, 11}, {46, 42, 39, 28, 26, 25, 24, 21}, {46, 32, 31, 28, 22, 19}, {45, 44, 43, 42, 41, 30, 29, 22}, {44, 43, 42, 41, 40, 39, 38, 36, 29, 28}, {49, 47, 46, 42, 41, 38, 37, 36, 30}, {47, 43, 41, 38, 37, 34, 33, 30}, {48, 44, 41, 37, 36, 33, 22}, {46, 42, 39, 38, 36, 32, 28}, {47, 44, 40, 39, 36, 29, 28}, {44, 41, 38, 36, 29, 28}, {42, 41, 39, 38, 37}, {40, 38, 36, 28}, {43, 41, 29}, {40, 39, 38}, {43, 39, 36}, {40, 38}, {45, 36}, {38, 36}, {45, 43}, {37}, {37}, {39}, {36}, {40}, {39}, {36}, {36}, {}, {}, {}, {}, {}, {}, {}, {}, {}, {}, {}, {}, {}, {}, {}];
n_opt = 150;
dur = [5, 8, 23, 7, 23, 28, 4, 10, 28, 8, 18, 23, 7, 10, 21, 12, 13, 27, 6, 11, 24, 2, 23, 27, 6, 8, 30, 7, 11, 12, 3, 4, 18, 5, 9, 13, 18, 20, 27, 7, 23, 26, 7, 8, 19, 5, 11, 22, 8, 13, 17, 4, 24, 25, 1, 26, 29, 2, 5, 24, 6, 20, 24, 18, 28, 29, 10, 15, 21, 4, 8, 17, 4, 12, 13, 6, 22, 28, 5, 7, 23, 8, 24, 29, 23, 26, 27, 5, 7, 24, 2, 9, 28, 7, 12, 18, 5, 8, 17, 20, 26, 29, 10, 12, 26, 8, 21, 27, 8, 21, 22, 1, 9, 23, 14, 20, 29, 2, 10, 25, 9, 17, 28, 1, 12, 27, 26, 28, 29, 9, 22, 23, 1, 5, 16, 4, 8, 28, 4, 13, 21, 2, 19, 24, 3, 6, 11, 6, 14, 23];
rreq = [|4, 3, 3, 2, 2, 1, 4, 4, 4, 5, 5, 5, 5, 4, 4, 2, 1, 1, 2, 1, 1, 2, 2, 2, 2, 2, 2, 3, 2, 1, 5, 5, 5, 4, 4, 3, 3, 3, 3, 3, 2, 1, 5, 2, 1, 4, 4, 2, 3, 3, 3, 2, 1, 1, 4, 3, 1, 5, 4, 3, 4, 4, 3, 1, 1, 1, 4, 4, 3, 2, 1, 1, 4, 3, 2, 5, 3, 3, 4, 3, 3, 3, 2, 2, 3, 3, 3, 4, 3, 2, 4, 4, 3, 4, 2, 2, 5, 4, 2, 4, 3, 3, 4, 4, 3, 4, 3, 2, 4, 3, 3, 4, 4, 4, 4, 4, 3, 3, 3, 3, 4, 3, 2, 4, 3, 1, 1, 1, 1, 5, 2, 2, 2, 2, 2, 3, 2, 1, 4, 2, 2, 3, 3, 2, 5, 4, 3, 1, 1, 1
 |3, 2, 2, 3, 2, 2, 4, 3, 2, 3, 2, 2, 3, 3, 3, 3, 2, 2, 3, 3, 3, 2, 2, 2, 4, 2, 1, 3, 3, 3, 5, 5, 5, 2, 1, 1, 4, 3, 3, 2, 2, 2, 2, 2, 2, 4, 3, 2, 2, 2, 2, 5, 4, 2, 4, 3, 3, 3, 2, 1, 1, 1, 1, 3, 2, 1, 2, 1, 1, 4, 3, 3, 5, 3, 2, 3, 2, 2, 2, 2, 2, 2, 1, 1, 4, 3, 2, 1, 1, 1, 2, 1, 1, 2, 2, 2, 3, 3, 1, 2, 1, 1, 3, 2, 1, 3, 3, 3, 5, 4, 4, 4, 3, 1, 3, 1, 1, 5, 4, 4, 4, 3, 1, 1, 1, 1, 4, 4, 4, 2, 2, 2, 4, 3, 2, 2, 2, 2, 3, 2, 1, 1, 1, 1, 1, 1, 1, 4, 3, 2
 |2, 2, 2, 4, 4, 3, 4, 4, 4, 2, 2, 2, 4, 2, 2, 3, 3, 2, 3, 3, 3, 4, 3, 2, 5, 5, 5, 5, 4, 4, 2, 1, 1, 3, 1, 1, 4, 4, 2, 4, 3, 2, 4, 4, 3, 5, 5, 5, 3, 3, 1, 3, 3, 2, 2, 1, 1, 3, 3, 1, 4, 4, 4, 4, 3, 3, 4, 3, 3, 3, 3, 3, 4, 3, 3, 4, 2, 2, 4, 4, 3, 5, 3, 1, 4, 3, 2, 4, 3, 3, 5, 2, 2, 5, 4, 3, 3, 2, 2, 3, 2, 2, 5, 4, 3, 4, 3, 2, 5, 4, 3, 2, 1, 1, 2, 2, 2, 5, 4, 2, 4, 3, 3, 5, 3, 3, 4, 2, 1, 1, 1, 1, 4, 4, 4, 4, 3, 2, 2, 1, 1, 4, 3, 3, 4, 4, 2, 4, 4, 2
 |1, 1, 1, 4, 4, 4, 4, 3, 2, 5, 3, 3, 4, 4, 4, 5, 3, 1, 4, 3, 1, 4, 4, 4, 3, 2, 1, 5, 3, 3, 1, 1, 1, 5, 3, 3, 3, 2, 2, 3, 3, 3, 5, 5, 5, 3, 3, 2, 3, 3, 3, 5, 3, 3, 4, 3, 3, 4, 2, 2, 3, 2, 2, 5, 4, 3, 3, 3, 3, 1, 1, 1, 5, 3, 1, 1, 1, 1, 5, 4, 4, 5, 5, 5, 2, 2, 2, 4, 3, 1, 3, 2, 2, 3, 3, 3, 4, 3, 3, 4, 3, 1, 5, 5, 5, 3, 1, 1, 3, 3, 3, 2, 1, 1, 5, 4, 4, 4, 4, 3, 3, 2, 1, 3, 3, 2, 4, 4, 3, 5, 3, 3, 2, 2, 2, 3, 2, 1, 1, 1, 1, 5, 3, 3, 5, 4, 3, 5, 4, 4
 |12, 7, 3, 12, 11, 9, 25, 23, 23, 19, 16, 12, 12, 10, 6, 27, 21, 12, 9, 9, 9, 16, 15, 11, 18, 16, 15, 19, 16, 13, 27, 27, 25, 9, 8, 7, 26, 21, 13, 10, 9, 6, 27, 18, 5, 29, 18, 12, 18, 13, 4, 23, 14, 5, 27, 26, 25, 30, 21, 13, 14, 13, 7, 26, 10, 4, 16, 15, 9, 10, 5, 3, 22, 15, 10, 22, 16, 11, 13, 8, 6, 28, 26, 25, 15, 13, 13, 24, 24, 22, 21, 19, 18, 11, 10, 10, 17, 13, 2, 13, 9, 7, 24, 16, 12, 26, 22, 17, 19, 17, 15, 29, 28, 26, 23, 21, 21, 21, 14, 11, 19, 14, 12, 21, 15, 12, 21, 21, 19, 8, 4, 3, 17, 8, 8, 21, 21, 21, 17, 14, 10, 24, 22, 17, 25, 22, 21, 14, 10, 6
 |14, 10, 5, 25, 24, 24, 12, 10, 8, 26, 20, 1, 15, 14, 13, 13, 10, 5, 18, 16, 15, 12, 11, 11, 4, 3, 1, 12, 12, 12, 26, 17, 10, 21, 17, 14, 28, 27, 25, 11, 11, 11, 20, 20, 18, 19, 16, 12, 27, 19, 16, 27, 26, 26, 16, 14, 13, 7, 6, 5, 1, 1, 1, 3, 2, 1, 19, 13, 6, 2, 2, 2, 19, 18, 18, 21, 11, 7, 18, 12, 10, 22, 22, 20, 7, 6, 6, 19, 8, 2, 22, 17, 8, 15, 10, 3, 29, 27, 26, 24, 24, 24, 15, 15, 12, 25, 22, 22, 20, 18, 14, 28, 26, 23, 5, 4, 3, 25, 23, 21, 12, 10, 10, 27, 24, 22, 17, 13, 12, 21, 15, 6, 14, 12, 5, 8, 7, 5, 23, 17, 8, 6, 6, 4, 21, 9, 5, 18, 15, 14
 |2, 2, 1, 16, 11, 3, 26, 22, 15, 19, 19, 17, 30, 26, 25, 24, 20, 12, 14, 14, 14, 19, 19, 19, 29, 29, 28, 25, 22, 22, 5, 5, 5, 16, 15, 13, 25, 25, 25, 10, 8, 5, 27, 25, 25, 6, 4, 2, 26, 15, 5, 4, 3, 2, 10, 6, 2, 26, 25, 24, 20, 20, 16, 29, 27, 27, 16, 13, 12, 30, 24, 22, 8, 7, 4, 21, 15, 12, 12, 8, 4, 23, 23, 22, 7, 5, 5, 18, 11, 7, 29, 24, 19, 26, 25, 25, 26, 22, 14, 24, 23, 16, 16, 12, 8, 19, 18, 17, 24, 22, 11, 4, 3, 1, 6, 5, 5, 26, 19, 11, 25, 18, 1, 27, 27, 27, 10, 9, 7, 15, 13, 13, 9, 6, 2, 12, 8, 4, 14, 10, 8, 28, 24, 24, 15, 11, 7, 22, 17, 7
 |23, 22, 21, 12, 9, 7, 13, 6, 6, 17, 17, 17, 12, 12, 12, 15, 14, 14, 3, 3, 3, 21, 21, 21, 30, 27, 26, 25, 24, 23, 26, 23, 12, 14, 9, 3, 20, 17, 2, 13, 11, 8, 26, 21, 13, 14, 10, 8, 19, 16, 14, 30, 24, 19, 8, 8, 2, 18, 13, 5, 27, 20, 19, 11, 6, 3, 24, 23, 21, 16, 15, 15, 13, 5, 5, 17, 7, 3, 29, 27, 27, 14, 14, 12, 24, 22, 20, 11, 9, 8, 24, 20, 15, 26, 25, 24, 28, 21, 18, 21, 21, 15, 15, 11, 8, 11, 7, 2, 23, 17, 11, 19, 16, 14, 22, 22, 15, 17, 14, 8, 10, 10, 9, 20, 12, 3, 4, 3, 2, 26, 22, 22, 23, 20, 12, 14, 11, 5, 15, 15, 15, 15, 11, 8, 5, 5, 4, 13, 10, 8|];